Cost: 606
0-44-18-3-17-0
0-23-56-1-6-0
0-34-46-8-19-0
0-51-9-39-12-0
0-57-20-45-4-0
0-26-11-53-7-0
0-30-21-28-22-0
0-58-10-40-0
0-2-42-41-43-0
Cost: 606
0-58-10-40-0
0-7-53-11-26-0
0-17-3-18-44-0
0-19-8-46-34-0
0-22-28-21-30-0
0-57-20-45-4-0
0-43-41-42-2-0
0-51-9-39-12-0
0-6-1-56-23-0
Cost: 606
0-44-18-3-17-0
0-23-56-1-6-0
0-34-46-8-19-0
0-51-9-39-12-0
0-57-20-45-4-0
0-26-11-53-7-0
0-30-21-28-22-0
0-58-10-40-0
0-2-42-41-43-0
Cost: 606
0-44-18-3-17-0
0-23-56-1-6-0
0-34-46-8-19-0
0-51-9-39-12-0
0-57-20-45-4-0
0-26-11-53-7-0
0-30-21-28-22-0
0-58-10-40-0
0-2-42-41-43-0
Cost: 606
0-58-10-40-0
0-17-44-18-3-0
0-23-56-1-6-0
0-22-28-21-30-0
0-12-39-9-51-0
0-7-53-11-26-0
0-2-42-41-43-0
0-4-45-20-57-0
0-34-19-8-46-0
Cost: 606
0-3-18-44-17-0
0-57-20-45-4-0
0-6-1-56-23-0
0-43-41-42-2-0
0-34-19-8-46-0
0-26-11-53-7-0
0-30-21-28-22-0
0-58-10-40-0
0-51-9-39-12-0
Cost: 606
0-22-28-21-30-0
0-17-3-18-44-0
0-58-10-40-0
0-57-20-45-4-0
0-26-11-53-7-0
0-19-8-46-34-0
0-23-56-1-6-0
0-12-39-9-51-0
0-43-41-42-2-0
Cost: 606
0-22-28-21-30-0
0-17-3-18-44-0
0-58-10-40-0
0-57-20-45-4-0
0-26-11-53-7-0
0-19-8-46-34-0
0-23-56-1-6-0
0-12-39-9-51-0
0-43-41-42-2-0
Cost: 606
0-22-28-21-30-0
0-17-3-18-44-0
0-58-10-40-0
0-57-20-45-4-0
0-26-11-53-7-0
0-19-8-46-34-0
0-23-56-1-6-0
0-12-39-9-51-0
0-43-41-42-2-0
Cost: 606
0-22-28-21-30-0
0-17-3-18-44-0
0-58-10-40-0
0-57-20-45-4-0
0-26-11-53-7-0
0-19-8-46-34-0
0-23-56-1-6-0
0-12-39-9-51-0
0-43-41-42-2-0
Cost: 606
0-22-28-21-30-0
0-17-3-18-44-0
0-58-10-40-0
0-57-20-45-4-0
0-26-11-53-7-0
0-19-8-46-34-0
0-23-56-1-6-0
0-12-39-9-51-0
0-43-41-42-2-0
Cost: 606
0-22-28-21-30-0
0-17-3-18-44-0
0-58-10-40-0
0-57-20-45-4-0
0-26-11-53-7-0
0-19-8-46-34-0
0-23-56-1-6-0
0-12-39-9-51-0
0-43-41-42-2-0
Cost: 606
0-22-28-21-30-0
0-17-3-18-44-0
0-58-10-40-0
0-57-20-45-4-0
0-26-11-53-7-0
0-19-8-46-34-0
0-23-56-1-6-0
0-12-39-9-51-0
0-43-41-42-2-0
Cost: 606
0-7-53-11-26-0
0-46-8-19-34-0
0-2-42-41-43-0
0-12-39-9-51-0
0-57-20-45-4-0
0-30-21-28-22-0
0-58-10-40-0
0-44-18-3-17-0
0-6-1-56-23-0
Cost: 606
0-22-28-21-30-0
0-17-3-18-44-0
0-58-10-40-0
0-57-20-45-4-0
0-26-11-53-7-0
0-19-8-46-34-0
0-23-56-1-6-0
0-12-39-9-51-0
0-43-41-42-2-0
Cost: 606
0-22-28-21-30-0
0-17-3-18-44-0
0-58-10-40-0
0-57-20-45-4-0
0-26-11-53-7-0
0-19-8-46-34-0
0-23-56-1-6-0
0-12-39-9-51-0
0-43-41-42-2-0
Cost: 606
0-22-28-21-30-0
0-17-3-18-44-0
0-58-10-40-0
0-57-20-45-4-0
0-26-11-53-7-0
0-19-8-46-34-0
0-23-56-1-6-0
0-12-39-9-51-0
0-43-41-42-2-0
Cost: 606
0-30-21-28-22-0
0-7-53-11-26-0
0-58-10-40-0
0-19-8-46-34-0
0-2-42-41-43-0
0-6-1-56-23-0
0-57-20-45-4-0
0-12-39-9-51-0
0-17-3-18-44-0
Cost: 606
0-30-21-28-22-0
0-7-53-11-26-0
0-58-10-40-0
0-19-8-46-34-0
0-2-42-41-43-0
0-6-1-56-23-0
0-57-20-45-4-0
0-12-39-9-51-0
0-17-3-18-44-0
Cost: 606
0-30-21-28-22-0
0-7-53-11-26-0
0-58-10-40-0
0-19-8-46-34-0
0-2-42-41-43-0
0-6-1-56-23-0
0-57-20-45-4-0
0-12-39-9-51-0
0-17-3-18-44-0
Cost: 606
0-57-20-45-4-0
0-2-42-41-43-0
0-26-11-53-7-0
0-12-39-9-51-0
0-17-44-18-3-0
0-58-10-40-0
0-30-21-28-22-0
0-46-8-19-34-0
0-6-1-56-23-0
Cost: 606
0-57-20-45-4-0
0-2-42-41-43-0
0-26-11-53-7-0
0-12-39-9-51-0
0-17-44-18-3-0
0-58-10-40-0
0-30-21-28-22-0
0-46-8-19-34-0
0-6-1-56-23-0
Cost: 606
0-4-45-20-57-0
0-2-42-41-43-0
0-12-39-9-51-0
0-26-11-53-7-0
0-44-18-3-17-0
0-19-8-46-34-0
0-58-10-40-0
0-6-1-56-23-0
0-22-28-21-30-0
Cost: 606
0-57-20-45-4-0
0-2-42-41-43-0
0-26-11-53-7-0
0-12-39-9-51-0
0-17-44-18-3-0
0-58-10-40-0
0-30-21-28-22-0
0-46-8-19-34-0
0-6-1-56-23-0
Cost: 606
0-30-21-28-22-0
0-7-53-11-26-0
0-58-10-40-0
0-19-8-46-34-0
0-2-42-41-43-0
0-6-1-56-23-0
0-57-20-45-4-0
0-12-39-9-51-0
0-17-3-18-44-0
Cost: 606
0-30-21-28-22-0
0-7-53-11-26-0
0-58-10-40-0
0-19-8-46-34-0
0-2-42-41-43-0
0-6-1-56-23-0
0-57-20-45-4-0
0-12-39-9-51-0
0-17-3-18-44-0
Cost: 0
Cost: 0
Cost: 630
0-1-56-24-18-0
0-17-3-51-6-0
0-12-58-40-44-0
0-2-43-42-41-0
0-30-21-28-22-0
0-7-53-11-26-0
0-8-19-34-46-0
0-10-39-9-0
0-4-45-20-57-0
Cost: 606
0-46-8-19-34-0
0-40-10-58-0
0-44-18-3-17-0
0-6-1-56-23-0
0-57-20-45-4-0
0-26-11-53-7-0
0-30-21-28-22-0
0-2-42-41-43-0
0-12-39-9-51-0
Cost: 606
0-51-9-39-12-0
0-17-3-18-44-0
0-43-41-42-2-0
0-57-20-45-4-0
0-26-11-53-7-0
0-23-56-1-6-0
0-30-21-28-22-0
0-58-10-40-0
0-34-19-8-46-0
